\ENCODING=ISO-8859-1
\Problem name: kMIS

Maximize
 obj: x1 + x2 + x3 + x4 + x5 + x6 + x7 + x8 + x9 + x10 + x11 + x12 + x13 + x14
      + x15 + x16 + x17 + x18 + x19 + x20 + x21 + x22 + x23 + x24 + x25 + x26
      + x27 + x28 + x29 + x30 + x31 + x32 + x33 + x34 + x35 + x36 + x37 + x38
      + x39 + x40 + x41 + x42 + x43 + x44 + x45 + x46 + x47 + x48 + x49 + x50
      + x51 + x52 + x53 + x54 + x55
Subject To
 c1:    x56 + x57 + x58 + x59 + x60 + x61 + x62 + x63 + x64 + x65 + x66 + x67
        + x68 + x69 + x70 + x71 + x72 + x73 + x74 + x75 + x76 + x77 + x78 + x79
        + x80 + x81 + x82 + x83 + x84 + x85 + x86 + x87 + x88 + x89 + x90 + x91
        + x92 + x93 + x94 + x95 + x96 + x97 + x98 + x99 + x100 + x101 + x102
        + x103 + x104 + x105 + x106 + x107 + x108 + x109 + x110  = 16
 c2:    x2 + x56 <= 1
 c3:    x3 + x56 <= 1
 c4:    x4 + x56 <= 1
 c5:    x9 + x56 <= 1
 c6:    x10 + x56 <= 1
 c7:    x11 + x56 <= 1
 c8:    x12 + x56 <= 1
 c9:    x18 + x56 <= 1
 c10:   x20 + x56 <= 1
 c11:   x21 + x56 <= 1
 c12:   x23 + x56 <= 1
 c13:   x25 + x56 <= 1
 c14:   x30 + x56 <= 1
 c15:   x40 + x56 <= 1
 c16:   x41 + x56 <= 1
 c17:   x45 + x56 <= 1
 c18:   x51 + x56 <= 1
 c19:   x52 + x56 <= 1
 c20:   x55 + x56 <= 1
 c21:   x1 + x57 <= 1
 c22:   x2 + x57 <= 1
 c23:   x4 + x57 <= 1
 c24:   x7 + x57 <= 1
 c25:   x8 + x57 <= 1
 c26:   x11 + x57 <= 1
 c27:   x14 + x57 <= 1
 c28:   x15 + x57 <= 1
 c29:   x16 + x57 <= 1
 c30:   x19 + x57 <= 1
 c31:   x21 + x57 <= 1
 c32:   x23 + x57 <= 1
 c33:   x24 + x57 <= 1
 c34:   x30 + x57 <= 1
 c35:   x31 + x57 <= 1
 c36:   x33 + x57 <= 1
 c37:   x35 + x57 <= 1
 c38:   x40 + x57 <= 1
 c39:   x41 + x57 <= 1
 c40:   x43 + x57 <= 1
 c41:   x44 + x57 <= 1
 c42:   x45 + x57 <= 1
 c43:   x47 + x57 <= 1
 c44:   x48 + x57 <= 1
 c45:   x50 + x57 <= 1
 c46:   x51 + x57 <= 1
 c47:   x52 + x57 <= 1
 c48:   x53 + x57 <= 1
 c49:   x54 + x57 <= 1
 c50:   x2 + x58 <= 1
 c51:   x3 + x58 <= 1
 c52:   x11 + x58 <= 1
 c53:   x12 + x58 <= 1
 c54:   x13 + x58 <= 1
 c55:   x14 + x58 <= 1
 c56:   x15 + x58 <= 1
 c57:   x16 + x58 <= 1
 c58:   x18 + x58 <= 1
 c59:   x20 + x58 <= 1
 c60:   x24 + x58 <= 1
 c61:   x28 + x58 <= 1
 c62:   x29 + x58 <= 1
 c63:   x31 + x58 <= 1
 c64:   x32 + x58 <= 1
 c65:   x33 + x58 <= 1
 c66:   x34 + x58 <= 1
 c67:   x35 + x58 <= 1
 c68:   x43 + x58 <= 1
 c69:   x45 + x58 <= 1
 c70:   x48 + x58 <= 1
 c71:   x49 + x58 <= 1
 c72:   x50 + x58 <= 1
 c73:   x51 + x58 <= 1
 c74:   x52 + x58 <= 1
 c75:   x55 + x58 <= 1
 c76:   x2 + x59 <= 1
 c77:   x5 + x59 <= 1
 c78:   x6 + x59 <= 1
 c79:   x8 + x59 <= 1
 c80:   x11 + x59 <= 1
 c81:   x12 + x59 <= 1
 c82:   x16 + x59 <= 1
 c83:   x18 + x59 <= 1
 c84:   x20 + x59 <= 1
 c85:   x21 + x59 <= 1
 c86:   x24 + x59 <= 1
 c87:   x25 + x59 <= 1
 c88:   x27 + x59 <= 1
 c89:   x29 + x59 <= 1
 c90:   x30 + x59 <= 1
 c91:   x31 + x59 <= 1
 c92:   x32 + x59 <= 1
 c93:   x35 + x59 <= 1
 c94:   x36 + x59 <= 1
 c95:   x37 + x59 <= 1
 c96:   x38 + x59 <= 1
 c97:   x39 + x59 <= 1
 c98:   x43 + x59 <= 1
 c99:   x44 + x59 <= 1
 c100:  x46 + x59 <= 1
 c101:  x47 + x59 <= 1
 c102:  x49 + x59 <= 1
 c103:  x50 + x59 <= 1
 c104:  x52 + x59 <= 1
 c105:  x53 + x59 <= 1
 c106:  x54 + x59 <= 1
 c107:  x55 + x59 <= 1
 c108:  x2 + x60 <= 1
 c109:  x4 + x60 <= 1
 c110:  x5 + x60 <= 1
 c111:  x6 + x60 <= 1
 c112:  x7 + x60 <= 1
 c113:  x8 + x60 <= 1
 c114:  x9 + x60 <= 1
 c115:  x10 + x60 <= 1
 c116:  x14 + x60 <= 1
 c117:  x17 + x60 <= 1
 c118:  x20 + x60 <= 1
 c119:  x21 + x60 <= 1
 c120:  x23 + x60 <= 1
 c121:  x25 + x60 <= 1
 c122:  x26 + x60 <= 1
 c123:  x31 + x60 <= 1
 c124:  x34 + x60 <= 1
 c125:  x36 + x60 <= 1
 c126:  x37 + x60 <= 1
 c127:  x44 + x60 <= 1
 c128:  x45 + x60 <= 1
 c129:  x47 + x60 <= 1
 c130:  x48 + x60 <= 1
 c131:  x51 + x60 <= 1
 c132:  x53 + x60 <= 1
 c133:  x5 + x61 <= 1
 c134:  x8 + x61 <= 1
 c135:  x9 + x61 <= 1
 c136:  x10 + x61 <= 1
 c137:  x15 + x61 <= 1
 c138:  x17 + x61 <= 1
 c139:  x18 + x61 <= 1
 c140:  x22 + x61 <= 1
 c141:  x25 + x61 <= 1
 c142:  x27 + x61 <= 1
 c143:  x29 + x61 <= 1
 c144:  x30 + x61 <= 1
 c145:  x33 + x61 <= 1
 c146:  x35 + x61 <= 1
 c147:  x36 + x61 <= 1
 c148:  x40 + x61 <= 1
 c149:  x43 + x61 <= 1
 c150:  x55 + x61 <= 1
 c151:  x3 + x62 <= 1
 c152:  x4 + x62 <= 1
 c153:  x5 + x62 <= 1
 c154:  x6 + x62 <= 1
 c155:  x8 + x62 <= 1
 c156:  x9 + x62 <= 1
 c157:  x10 + x62 <= 1
 c158:  x11 + x62 <= 1
 c159:  x15 + x62 <= 1
 c160:  x16 + x62 <= 1
 c161:  x19 + x62 <= 1
 c162:  x21 + x62 <= 1
 c163:  x25 + x62 <= 1
 c164:  x27 + x62 <= 1
 c165:  x29 + x62 <= 1
 c166:  x31 + x62 <= 1
 c167:  x32 + x62 <= 1
 c168:  x41 + x62 <= 1
 c169:  x44 + x62 <= 1
 c170:  x46 + x62 <= 1
 c171:  x49 + x62 <= 1
 c172:  x52 + x62 <= 1
 c173:  x2 + x63 <= 1
 c174:  x3 + x63 <= 1
 c175:  x5 + x63 <= 1
 c176:  x6 + x63 <= 1
 c177:  x7 + x63 <= 1
 c178:  x10 + x63 <= 1
 c179:  x11 + x63 <= 1
 c180:  x12 + x63 <= 1
 c181:  x14 + x63 <= 1
 c182:  x15 + x63 <= 1
 c183:  x16 + x63 <= 1
 c184:  x17 + x63 <= 1
 c185:  x19 + x63 <= 1
 c186:  x22 + x63 <= 1
 c187:  x23 + x63 <= 1
 c188:  x24 + x63 <= 1
 c189:  x25 + x63 <= 1
 c190:  x32 + x63 <= 1
 c191:  x33 + x63 <= 1
 c192:  x37 + x63 <= 1
 c193:  x39 + x63 <= 1
 c194:  x40 + x63 <= 1
 c195:  x41 + x63 <= 1
 c196:  x44 + x63 <= 1
 c197:  x45 + x63 <= 1
 c198:  x46 + x63 <= 1
 c199:  x47 + x63 <= 1
 c200:  x51 + x63 <= 1
 c201:  x1 + x64 <= 1
 c202:  x5 + x64 <= 1
 c203:  x7 + x64 <= 1
 c204:  x8 + x64 <= 1
 c205:  x9 + x64 <= 1
 c206:  x13 + x64 <= 1
 c207:  x15 + x64 <= 1
 c208:  x17 + x64 <= 1
 c209:  x19 + x64 <= 1
 c210:  x20 + x64 <= 1
 c211:  x22 + x64 <= 1
 c212:  x23 + x64 <= 1
 c213:  x24 + x64 <= 1
 c214:  x25 + x64 <= 1
 c215:  x26 + x64 <= 1
 c216:  x27 + x64 <= 1
 c217:  x29 + x64 <= 1
 c218:  x30 + x64 <= 1
 c219:  x31 + x64 <= 1
 c220:  x32 + x64 <= 1
 c221:  x33 + x64 <= 1
 c222:  x39 + x64 <= 1
 c223:  x40 + x64 <= 1
 c224:  x41 + x64 <= 1
 c225:  x44 + x64 <= 1
 c226:  x47 + x64 <= 1
 c227:  x49 + x64 <= 1
 c228:  x53 + x64 <= 1
 c229:  x5 + x65 <= 1
 c230:  x6 + x65 <= 1
 c231:  x7 + x65 <= 1
 c232:  x8 + x65 <= 1
 c233:  x11 + x65 <= 1
 c234:  x14 + x65 <= 1
 c235:  x18 + x65 <= 1
 c236:  x25 + x65 <= 1
 c237:  x27 + x65 <= 1
 c238:  x31 + x65 <= 1
 c239:  x32 + x65 <= 1
 c240:  x33 + x65 <= 1
 c241:  x34 + x65 <= 1
 c242:  x39 + x65 <= 1
 c243:  x40 + x65 <= 1
 c244:  x42 + x65 <= 1
 c245:  x44 + x65 <= 1
 c246:  x46 + x65 <= 1
 c247:  x47 + x65 <= 1
 c248:  x49 + x65 <= 1
 c249:  x51 + x65 <= 1
 c250:  x52 + x65 <= 1
 c251:  x53 + x65 <= 1
 c252:  x54 + x65 <= 1
 c253:  x2 + x66 <= 1
 c254:  x3 + x66 <= 1
 c255:  x4 + x66 <= 1
 c256:  x5 + x66 <= 1
 c257:  x6 + x66 <= 1
 c258:  x10 + x66 <= 1
 c259:  x11 + x66 <= 1
 c260:  x17 + x66 <= 1
 c261:  x18 + x66 <= 1
 c262:  x21 + x66 <= 1
 c263:  x22 + x66 <= 1
 c264:  x23 + x66 <= 1
 c265:  x24 + x66 <= 1
 c266:  x25 + x66 <= 1
 c267:  x26 + x66 <= 1
 c268:  x28 + x66 <= 1
 c269:  x29 + x66 <= 1
 c270:  x30 + x66 <= 1
 c271:  x31 + x66 <= 1
 c272:  x32 + x66 <= 1
 c273:  x37 + x66 <= 1
 c274:  x38 + x66 <= 1
 c275:  x39 + x66 <= 1
 c276:  x40 + x66 <= 1
 c277:  x45 + x66 <= 1
 c278:  x46 + x66 <= 1
 c279:  x49 + x66 <= 1
 c280:  x50 + x66 <= 1
 c281:  x51 + x66 <= 1
 c282:  x53 + x66 <= 1
 c283:  x55 + x66 <= 1
 c284:  x2 + x67 <= 1
 c285:  x4 + x67 <= 1
 c286:  x5 + x67 <= 1
 c287:  x14 + x67 <= 1
 c288:  x16 + x67 <= 1
 c289:  x18 + x67 <= 1
 c290:  x26 + x67 <= 1
 c291:  x27 + x67 <= 1
 c292:  x30 + x67 <= 1
 c293:  x31 + x67 <= 1
 c294:  x33 + x67 <= 1
 c295:  x36 + x67 <= 1
 c296:  x42 + x67 <= 1
 c297:  x43 + x67 <= 1
 c298:  x44 + x67 <= 1
 c299:  x45 + x67 <= 1
 c300:  x51 + x67 <= 1
 c301:  x52 + x67 <= 1
 c302:  x54 + x67 <= 1
 c303:  x4 + x68 <= 1
 c304:  x5 + x68 <= 1
 c305:  x6 + x68 <= 1
 c306:  x9 + x68 <= 1
 c307:  x14 + x68 <= 1
 c308:  x19 + x68 <= 1
 c309:  x23 + x68 <= 1
 c310:  x28 + x68 <= 1
 c311:  x30 + x68 <= 1
 c312:  x34 + x68 <= 1
 c313:  x36 + x68 <= 1
 c314:  x37 + x68 <= 1
 c315:  x40 + x68 <= 1
 c316:  x41 + x68 <= 1
 c317:  x43 + x68 <= 1
 c318:  x44 + x68 <= 1
 c319:  x45 + x68 <= 1
 c320:  x47 + x68 <= 1
 c321:  x53 + x68 <= 1
 c322:  x54 + x68 <= 1
 c323:  x1 + x69 <= 1
 c324:  x2 + x69 <= 1
 c325:  x3 + x69 <= 1
 c326:  x4 + x69 <= 1
 c327:  x5 + x69 <= 1
 c328:  x11 + x69 <= 1
 c329:  x12 + x69 <= 1
 c330:  x15 + x69 <= 1
 c331:  x16 + x69 <= 1
 c332:  x17 + x69 <= 1
 c333:  x18 + x69 <= 1
 c334:  x20 + x69 <= 1
 c335:  x22 + x69 <= 1
 c336:  x24 + x69 <= 1
 c337:  x28 + x69 <= 1
 c338:  x31 + x69 <= 1
 c339:  x32 + x69 <= 1
 c340:  x33 + x69 <= 1
 c341:  x34 + x69 <= 1
 c342:  x36 + x69 <= 1
 c343:  x37 + x69 <= 1
 c344:  x38 + x69 <= 1
 c345:  x39 + x69 <= 1
 c346:  x42 + x69 <= 1
 c347:  x46 + x69 <= 1
 c348:  x54 + x69 <= 1
 c349:  x55 + x69 <= 1
 c350:  x1 + x70 <= 1
 c351:  x3 + x70 <= 1
 c352:  x4 + x70 <= 1
 c353:  x8 + x70 <= 1
 c354:  x12 + x70 <= 1
 c355:  x15 + x70 <= 1
 c356:  x16 + x70 <= 1
 c357:  x19 + x70 <= 1
 c358:  x23 + x70 <= 1
 c359:  x24 + x70 <= 1
 c360:  x26 + x70 <= 1
 c361:  x28 + x70 <= 1
 c362:  x29 + x70 <= 1
 c363:  x35 + x70 <= 1
 c364:  x38 + x70 <= 1
 c365:  x40 + x70 <= 1
 c366:  x41 + x70 <= 1
 c367:  x42 + x70 <= 1
 c368:  x43 + x70 <= 1
 c369:  x46 + x70 <= 1
 c370:  x49 + x70 <= 1
 c371:  x50 + x70 <= 1
 c372:  x3 + x71 <= 1
 c373:  x4 + x71 <= 1
 c374:  x6 + x71 <= 1
 c375:  x9 + x71 <= 1
 c376:  x11 + x71 <= 1
 c377:  x13 + x71 <= 1
 c378:  x14 + x71 <= 1
 c379:  x17 + x71 <= 1
 c380:  x20 + x71 <= 1
 c381:  x21 + x71 <= 1
 c382:  x25 + x71 <= 1
 c383:  x26 + x71 <= 1
 c384:  x27 + x71 <= 1
 c385:  x33 + x71 <= 1
 c386:  x34 + x71 <= 1
 c387:  x36 + x71 <= 1
 c388:  x37 + x71 <= 1
 c389:  x40 + x71 <= 1
 c390:  x41 + x71 <= 1
 c391:  x42 + x71 <= 1
 c392:  x43 + x71 <= 1
 c393:  x45 + x71 <= 1
 c394:  x49 + x71 <= 1
 c395:  x51 + x71 <= 1
 c396:  x52 + x71 <= 1
 c397:  x1 + x72 <= 1
 c398:  x2 + x72 <= 1
 c399:  x3 + x72 <= 1
 c400:  x4 + x72 <= 1
 c401:  x5 + x72 <= 1
 c402:  x8 + x72 <= 1
 c403:  x9 + x72 <= 1
 c404:  x12 + x72 <= 1
 c405:  x16 + x72 <= 1
 c406:  x18 + x72 <= 1
 c407:  x19 + x72 <= 1
 c408:  x20 + x72 <= 1
 c409:  x22 + x72 <= 1
 c410:  x25 + x72 <= 1
 c411:  x26 + x72 <= 1
 c412:  x27 + x72 <= 1
 c413:  x28 + x72 <= 1
 c414:  x29 + x72 <= 1
 c415:  x32 + x72 <= 1
 c416:  x33 + x72 <= 1
 c417:  x36 + x72 <= 1
 c418:  x41 + x72 <= 1
 c419:  x42 + x72 <= 1
 c420:  x43 + x72 <= 1
 c421:  x44 + x72 <= 1
 c422:  x47 + x72 <= 1
 c423:  x48 + x72 <= 1
 c424:  x51 + x72 <= 1
 c425:  x54 + x72 <= 1
 c426:  x1 + x73 <= 1
 c427:  x2 + x73 <= 1
 c428:  x4 + x73 <= 1
 c429:  x7 + x73 <= 1
 c430:  x13 + x73 <= 1
 c431:  x14 + x73 <= 1
 c432:  x15 + x73 <= 1
 c433:  x16 + x73 <= 1
 c434:  x17 + x73 <= 1
 c435:  x19 + x73 <= 1
 c436:  x20 + x73 <= 1
 c437:  x23 + x73 <= 1
 c438:  x25 + x73 <= 1
 c439:  x26 + x73 <= 1
 c440:  x28 + x73 <= 1
 c441:  x29 + x73 <= 1
 c442:  x30 + x73 <= 1
 c443:  x31 + x73 <= 1
 c444:  x32 + x73 <= 1
 c445:  x34 + x73 <= 1
 c446:  x37 + x73 <= 1
 c447:  x39 + x73 <= 1
 c448:  x41 + x73 <= 1
 c449:  x42 + x73 <= 1
 c450:  x45 + x73 <= 1
 c451:  x47 + x73 <= 1
 c452:  x49 + x73 <= 1
 c453:  x50 + x73 <= 1
 c454:  x51 + x73 <= 1
 c455:  x52 + x73 <= 1
 c456:  x53 + x73 <= 1
 c457:  x3 + x74 <= 1
 c458:  x5 + x74 <= 1
 c459:  x6 + x74 <= 1
 c460:  x10 + x74 <= 1
 c461:  x12 + x74 <= 1
 c462:  x14 + x74 <= 1
 c463:  x16 + x74 <= 1
 c464:  x18 + x74 <= 1
 c465:  x19 + x74 <= 1
 c466:  x20 + x74 <= 1
 c467:  x21 + x74 <= 1
 c468:  x22 + x74 <= 1
 c469:  x23 + x74 <= 1
 c470:  x27 + x74 <= 1
 c471:  x28 + x74 <= 1
 c472:  x30 + x74 <= 1
 c473:  x35 + x74 <= 1
 c474:  x42 + x74 <= 1
 c475:  x43 + x74 <= 1
 c476:  x44 + x74 <= 1
 c477:  x47 + x74 <= 1
 c478:  x49 + x74 <= 1
 c479:  x50 + x74 <= 1
 c480:  x53 + x74 <= 1
 c481:  x54 + x74 <= 1
 c482:  x1 + x75 <= 1
 c483:  x3 + x75 <= 1
 c484:  x4 + x75 <= 1
 c485:  x6 + x75 <= 1
 c486:  x12 + x75 <= 1
 c487:  x13 + x75 <= 1
 c488:  x15 + x75 <= 1
 c489:  x16 + x75 <= 1
 c490:  x18 + x75 <= 1
 c491:  x19 + x75 <= 1
 c492:  x21 + x75 <= 1
 c493:  x22 + x75 <= 1
 c494:  x28 + x75 <= 1
 c495:  x31 + x75 <= 1
 c496:  x32 + x75 <= 1
 c497:  x36 + x75 <= 1
 c498:  x38 + x75 <= 1
 c499:  x43 + x75 <= 1
 c500:  x52 + x75 <= 1
 c501:  x54 + x75 <= 1
 c502:  x1 + x76 <= 1
 c503:  x2 + x76 <= 1
 c504:  x3 + x76 <= 1
 c505:  x8 + x76 <= 1
 c506:  x9 + x76 <= 1
 c507:  x10 + x76 <= 1
 c508:  x11 + x76 <= 1
 c509:  x14 + x76 <= 1
 c510:  x15 + x76 <= 1
 c511:  x16 + x76 <= 1
 c512:  x17 + x76 <= 1
 c513:  x20 + x76 <= 1
 c514:  x23 + x76 <= 1
 c515:  x27 + x76 <= 1
 c516:  x29 + x76 <= 1
 c517:  x30 + x76 <= 1
 c518:  x35 + x76 <= 1
 c519:  x36 + x76 <= 1
 c520:  x37 + x76 <= 1
 c521:  x42 + x76 <= 1
 c522:  x43 + x76 <= 1
 c523:  x44 + x76 <= 1
 c524:  x45 + x76 <= 1
 c525:  x46 + x76 <= 1
 c526:  x47 + x76 <= 1
 c527:  x48 + x76 <= 1
 c528:  x54 + x76 <= 1
 c529:  x3 + x77 <= 1
 c530:  x4 + x77 <= 1
 c531:  x9 + x77 <= 1
 c532:  x10 + x77 <= 1
 c533:  x12 + x77 <= 1
 c534:  x14 + x77 <= 1
 c535:  x16 + x77 <= 1
 c536:  x17 + x77 <= 1
 c537:  x21 + x77 <= 1
 c538:  x29 + x77 <= 1
 c539:  x30 + x77 <= 1
 c540:  x32 + x77 <= 1
 c541:  x33 + x77 <= 1
 c542:  x34 + x77 <= 1
 c543:  x35 + x77 <= 1
 c544:  x36 + x77 <= 1
 c545:  x38 + x77 <= 1
 c546:  x39 + x77 <= 1
 c547:  x40 + x77 <= 1
 c548:  x44 + x77 <= 1
 c549:  x45 + x77 <= 1
 c550:  x47 + x77 <= 1
 c551:  x48 + x77 <= 1
 c552:  x49 + x77 <= 1
 c553:  x51 + x77 <= 1
 c554:  x53 + x77 <= 1
 c555:  x54 + x77 <= 1
 c556:  x55 + x77 <= 1
 c557:  x3 + x78 <= 1
 c558:  x4 + x78 <= 1
 c559:  x5 + x78 <= 1
 c560:  x6 + x78 <= 1
 c561:  x8 + x78 <= 1
 c562:  x11 + x78 <= 1
 c563:  x12 + x78 <= 1
 c564:  x14 + x78 <= 1
 c565:  x15 + x78 <= 1
 c566:  x16 + x78 <= 1
 c567:  x18 + x78 <= 1
 c568:  x19 + x78 <= 1
 c569:  x21 + x78 <= 1
 c570:  x23 + x78 <= 1
 c571:  x25 + x78 <= 1
 c572:  x26 + x78 <= 1
 c573:  x27 + x78 <= 1
 c574:  x29 + x78 <= 1
 c575:  x33 + x78 <= 1
 c576:  x35 + x78 <= 1
 c577:  x37 + x78 <= 1
 c578:  x38 + x78 <= 1
 c579:  x39 + x78 <= 1
 c580:  x40 + x78 <= 1
 c581:  x41 + x78 <= 1
 c582:  x43 + x78 <= 1
 c583:  x45 + x78 <= 1
 c584:  x46 + x78 <= 1
 c585:  x47 + x78 <= 1
 c586:  x48 + x78 <= 1
 c587:  x49 + x78 <= 1
 c588:  x50 + x78 <= 1
 c589:  x51 + x78 <= 1
 c590:  x53 + x78 <= 1
 c591:  x2 + x79 <= 1
 c592:  x3 + x79 <= 1
 c593:  x6 + x79 <= 1
 c594:  x7 + x79 <= 1
 c595:  x9 + x79 <= 1
 c596:  x11 + x79 <= 1
 c597:  x14 + x79 <= 1
 c598:  x17 + x79 <= 1
 c599:  x18 + x79 <= 1
 c600:  x19 + x79 <= 1
 c601:  x21 + x79 <= 1
 c602:  x23 + x79 <= 1
 c603:  x25 + x79 <= 1
 c604:  x30 + x79 <= 1
 c605:  x32 + x79 <= 1
 c606:  x34 + x79 <= 1
 c607:  x35 + x79 <= 1
 c608:  x36 + x79 <= 1
 c609:  x37 + x79 <= 1
 c610:  x38 + x79 <= 1
 c611:  x39 + x79 <= 1
 c612:  x40 + x79 <= 1
 c613:  x41 + x79 <= 1
 c614:  x44 + x79 <= 1
 c615:  x47 + x79 <= 1
 c616:  x50 + x79 <= 1
 c617:  x53 + x79 <= 1
 c618:  x55 + x79 <= 1
 c619:  x2 + x80 <= 1
 c620:  x4 + x80 <= 1
 c621:  x9 + x80 <= 1
 c622:  x12 + x80 <= 1
 c623:  x13 + x80 <= 1
 c624:  x14 + x80 <= 1
 c625:  x15 + x80 <= 1
 c626:  x16 + x80 <= 1
 c627:  x17 + x80 <= 1
 c628:  x19 + x80 <= 1
 c629:  x20 + x80 <= 1
 c630:  x21 + x80 <= 1
 c631:  x22 + x80 <= 1
 c632:  x23 + x80 <= 1
 c633:  x24 + x80 <= 1
 c634:  x26 + x80 <= 1
 c635:  x27 + x80 <= 1
 c636:  x30 + x80 <= 1
 c637:  x31 + x80 <= 1
 c638:  x33 + x80 <= 1
 c639:  x34 + x80 <= 1
 c640:  x36 + x80 <= 1
 c641:  x37 + x80 <= 1
 c642:  x38 + x80 <= 1
 c643:  x40 + x80 <= 1
 c644:  x41 + x80 <= 1
 c645:  x42 + x80 <= 1
 c646:  x43 + x80 <= 1
 c647:  x45 + x80 <= 1
 c648:  x46 + x80 <= 1
 c649:  x48 + x80 <= 1
 c650:  x49 + x80 <= 1
 c651:  x50 + x80 <= 1
 c652:  x51 + x80 <= 1
 c653:  x52 + x80 <= 1
 c654:  x53 + x80 <= 1
 c655:  x54 + x80 <= 1
 c656:  x55 + x80 <= 1
 c657:  x1 + x81 <= 1
 c658:  x4 + x81 <= 1
 c659:  x5 + x81 <= 1
 c660:  x6 + x81 <= 1
 c661:  x8 + x81 <= 1
 c662:  x9 + x81 <= 1
 c663:  x10 + x81 <= 1
 c664:  x11 + x81 <= 1
 c665:  x13 + x81 <= 1
 c666:  x15 + x81 <= 1
 c667:  x17 + x81 <= 1
 c668:  x19 + x81 <= 1
 c669:  x20 + x81 <= 1
 c670:  x22 + x81 <= 1
 c671:  x25 + x81 <= 1
 c672:  x26 + x81 <= 1
 c673:  x27 + x81 <= 1
 c674:  x28 + x81 <= 1
 c675:  x29 + x81 <= 1
 c676:  x30 + x81 <= 1
 c677:  x33 + x81 <= 1
 c678:  x37 + x81 <= 1
 c679:  x38 + x81 <= 1
 c680:  x39 + x81 <= 1
 c681:  x42 + x81 <= 1
 c682:  x43 + x81 <= 1
 c683:  x44 + x81 <= 1
 c684:  x46 + x81 <= 1
 c685:  x47 + x81 <= 1
 c686:  x51 + x81 <= 1
 c687:  x1 + x82 <= 1
 c688:  x5 + x82 <= 1
 c689:  x6 + x82 <= 1
 c690:  x8 + x82 <= 1
 c691:  x10 + x82 <= 1
 c692:  x13 + x82 <= 1
 c693:  x17 + x82 <= 1
 c694:  x18 + x82 <= 1
 c695:  x19 + x82 <= 1
 c696:  x20 + x82 <= 1
 c697:  x21 + x82 <= 1
 c698:  x24 + x82 <= 1
 c699:  x26 + x82 <= 1
 c700:  x27 + x82 <= 1
 c701:  x28 + x82 <= 1
 c702:  x29 + x82 <= 1
 c703:  x30 + x82 <= 1
 c704:  x32 + x82 <= 1
 c705:  x35 + x82 <= 1
 c706:  x36 + x82 <= 1
 c707:  x37 + x82 <= 1
 c708:  x38 + x82 <= 1
 c709:  x41 + x82 <= 1
 c710:  x42 + x82 <= 1
 c711:  x44 + x82 <= 1
 c712:  x46 + x82 <= 1
 c713:  x47 + x82 <= 1
 c714:  x50 + x82 <= 1
 c715:  x52 + x82 <= 1
 c716:  x53 + x82 <= 1
 c717:  x54 + x82 <= 1
 c718:  x1 + x83 <= 1
 c719:  x2 + x83 <= 1
 c720:  x4 + x83 <= 1
 c721:  x5 + x83 <= 1
 c722:  x6 + x83 <= 1
 c723:  x7 + x83 <= 1
 c724:  x8 + x83 <= 1
 c725:  x10 + x83 <= 1
 c726:  x14 + x83 <= 1
 c727:  x15 + x83 <= 1
 c728:  x17 + x83 <= 1
 c729:  x20 + x83 <= 1
 c730:  x21 + x83 <= 1
 c731:  x25 + x83 <= 1
 c732:  x26 + x83 <= 1
 c733:  x28 + x83 <= 1
 c734:  x30 + x83 <= 1
 c735:  x35 + x83 <= 1
 c736:  x36 + x83 <= 1
 c737:  x38 + x83 <= 1
 c738:  x41 + x83 <= 1
 c739:  x45 + x83 <= 1
 c740:  x46 + x83 <= 1
 c741:  x48 + x83 <= 1
 c742:  x49 + x83 <= 1
 c743:  x50 + x83 <= 1
 c744:  x51 + x83 <= 1
 c745:  x54 + x83 <= 1
 c746:  x1 + x84 <= 1
 c747:  x3 + x84 <= 1
 c748:  x4 + x84 <= 1
 c749:  x5 + x84 <= 1
 c750:  x6 + x84 <= 1
 c751:  x7 + x84 <= 1
 c752:  x8 + x84 <= 1
 c753:  x11 + x84 <= 1
 c754:  x12 + x84 <= 1
 c755:  x13 + x84 <= 1
 c756:  x15 + x84 <= 1
 c757:  x16 + x84 <= 1
 c758:  x19 + x84 <= 1
 c759:  x22 + x84 <= 1
 c760:  x23 + x84 <= 1
 c761:  x24 + x84 <= 1
 c762:  x25 + x84 <= 1
 c763:  x27 + x84 <= 1
 c764:  x29 + x84 <= 1
 c765:  x34 + x84 <= 1
 c766:  x35 + x84 <= 1
 c767:  x36 + x84 <= 1
 c768:  x39 + x84 <= 1
 c769:  x40 + x84 <= 1
 c770:  x41 + x84 <= 1
 c771:  x42 + x84 <= 1
 c772:  x45 + x84 <= 1
 c773:  x47 + x84 <= 1
 c774:  x53 + x84 <= 1
 c775:  x54 + x84 <= 1
 c776:  x55 + x84 <= 1
 c777:  x1 + x85 <= 1
 c778:  x3 + x85 <= 1
 c779:  x4 + x85 <= 1
 c780:  x5 + x85 <= 1
 c781:  x7 + x85 <= 1
 c782:  x9 + x85 <= 1
 c783:  x13 + x85 <= 1
 c784:  x14 + x85 <= 1
 c785:  x16 + x85 <= 1
 c786:  x19 + x85 <= 1
 c787:  x21 + x85 <= 1
 c788:  x23 + x85 <= 1
 c789:  x24 + x85 <= 1
 c790:  x25 + x85 <= 1
 c791:  x31 + x85 <= 1
 c792:  x32 + x85 <= 1
 c793:  x36 + x85 <= 1
 c794:  x38 + x85 <= 1
 c795:  x40 + x85 <= 1
 c796:  x44 + x85 <= 1
 c797:  x45 + x85 <= 1
 c798:  x47 + x85 <= 1
 c799:  x48 + x85 <= 1
 c800:  x49 + x85 <= 1
 c801:  x50 + x85 <= 1
 c802:  x53 + x85 <= 1
 c803:  x1 + x86 <= 1
 c804:  x2 + x86 <= 1
 c805:  x4 + x86 <= 1
 c806:  x9 + x86 <= 1
 c807:  x16 + x86 <= 1
 c808:  x19 + x86 <= 1
 c809:  x21 + x86 <= 1
 c810:  x23 + x86 <= 1
 c811:  x25 + x86 <= 1
 c812:  x29 + x86 <= 1
 c813:  x31 + x86 <= 1
 c814:  x32 + x86 <= 1
 c815:  x36 + x86 <= 1
 c816:  x37 + x86 <= 1
 c817:  x40 + x86 <= 1
 c818:  x41 + x86 <= 1
 c819:  x42 + x86 <= 1
 c820:  x44 + x86 <= 1
 c821:  x45 + x86 <= 1
 c822:  x46 + x86 <= 1
 c823:  x49 + x86 <= 1
 c824:  x52 + x86 <= 1
 c825:  x53 + x86 <= 1
 c826:  x54 + x86 <= 1
 c827:  x1 + x87 <= 1
 c828:  x4 + x87 <= 1
 c829:  x6 + x87 <= 1
 c830:  x7 + x87 <= 1
 c831:  x8 + x87 <= 1
 c832:  x10 + x87 <= 1
 c833:  x11 + x87 <= 1
 c834:  x12 + x87 <= 1
 c835:  x13 + x87 <= 1
 c836:  x14 + x87 <= 1
 c837:  x15 + x87 <= 1
 c838:  x16 + x87 <= 1
 c839:  x18 + x87 <= 1
 c840:  x19 + x87 <= 1
 c841:  x20 + x87 <= 1
 c842:  x21 + x87 <= 1
 c843:  x22 + x87 <= 1
 c844:  x24 + x87 <= 1
 c845:  x25 + x87 <= 1
 c846:  x28 + x87 <= 1
 c847:  x30 + x87 <= 1
 c848:  x31 + x87 <= 1
 c849:  x32 + x87 <= 1
 c850:  x35 + x87 <= 1
 c851:  x36 + x87 <= 1
 c852:  x39 + x87 <= 1
 c853:  x40 + x87 <= 1
 c854:  x46 + x87 <= 1
 c855:  x53 + x87 <= 1
 c856:  x55 + x87 <= 1
 c857:  x1 + x88 <= 1
 c858:  x2 + x88 <= 1
 c859:  x3 + x88 <= 1
 c860:  x4 + x88 <= 1
 c861:  x7 + x88 <= 1
 c862:  x9 + x88 <= 1
 c863:  x11 + x88 <= 1
 c864:  x12 + x88 <= 1
 c865:  x13 + x88 <= 1
 c866:  x14 + x88 <= 1
 c867:  x16 + x88 <= 1
 c868:  x17 + x88 <= 1
 c869:  x19 + x88 <= 1
 c870:  x23 + x88 <= 1
 c871:  x24 + x88 <= 1
 c872:  x26 + x88 <= 1
 c873:  x30 + x88 <= 1
 c874:  x31 + x88 <= 1
 c875:  x32 + x88 <= 1
 c876:  x34 + x88 <= 1
 c877:  x36 + x88 <= 1
 c878:  x37 + x88 <= 1
 c879:  x41 + x88 <= 1
 c880:  x43 + x88 <= 1
 c881:  x44 + x88 <= 1
 c882:  x45 + x88 <= 1
 c883:  x46 + x88 <= 1
 c884:  x47 + x88 <= 1
 c885:  x48 + x88 <= 1
 c886:  x52 + x88 <= 1
 c887:  x54 + x88 <= 1
 c888:  x55 + x88 <= 1
 c889:  x7 + x89 <= 1
 c890:  x8 + x89 <= 1
 c891:  x10 + x89 <= 1
 c892:  x12 + x89 <= 1
 c893:  x13 + x89 <= 1
 c894:  x14 + x89 <= 1
 c895:  x15 + x89 <= 1
 c896:  x16 + x89 <= 1
 c897:  x17 + x89 <= 1
 c898:  x19 + x89 <= 1
 c899:  x20 + x89 <= 1
 c900:  x22 + x89 <= 1
 c901:  x23 + x89 <= 1
 c902:  x26 + x89 <= 1
 c903:  x27 + x89 <= 1
 c904:  x33 + x89 <= 1
 c905:  x38 + x89 <= 1
 c906:  x39 + x89 <= 1
 c907:  x41 + x89 <= 1
 c908:  x42 + x89 <= 1
 c909:  x44 + x89 <= 1
 c910:  x45 + x89 <= 1
 c911:  x47 + x89 <= 1
 c912:  x48 + x89 <= 1
 c913:  x49 + x89 <= 1
 c914:  x50 + x89 <= 1
 c915:  x6 + x90 <= 1
 c916:  x9 + x90 <= 1
 c917:  x10 + x90 <= 1
 c918:  x11 + x90 <= 1
 c919:  x13 + x90 <= 1
 c920:  x14 + x90 <= 1
 c921:  x15 + x90 <= 1
 c922:  x17 + x90 <= 1
 c923:  x18 + x90 <= 1
 c924:  x19 + x90 <= 1
 c925:  x20 + x90 <= 1
 c926:  x22 + x90 <= 1
 c927:  x23 + x90 <= 1
 c928:  x25 + x90 <= 1
 c929:  x26 + x90 <= 1
 c930:  x27 + x90 <= 1
 c931:  x29 + x90 <= 1
 c932:  x32 + x90 <= 1
 c933:  x35 + x90 <= 1
 c934:  x37 + x90 <= 1
 c935:  x38 + x90 <= 1
 c936:  x40 + x90 <= 1
 c937:  x42 + x90 <= 1
 c938:  x43 + x90 <= 1
 c939:  x47 + x90 <= 1
 c940:  x49 + x90 <= 1
 c941:  x54 + x90 <= 1
 c942:  x55 + x90 <= 1
 c943:  x1 + x91 <= 1
 c944:  x5 + x91 <= 1
 c945:  x7 + x91 <= 1
 c946:  x8 + x91 <= 1
 c947:  x9 + x91 <= 1
 c948:  x10 + x91 <= 1
 c949:  x12 + x91 <= 1
 c950:  x13 + x91 <= 1
 c951:  x15 + x91 <= 1
 c952:  x16 + x91 <= 1
 c953:  x17 + x91 <= 1
 c954:  x19 + x91 <= 1
 c955:  x20 + x91 <= 1
 c956:  x27 + x91 <= 1
 c957:  x29 + x91 <= 1
 c958:  x31 + x91 <= 1
 c959:  x32 + x91 <= 1
 c960:  x34 + x91 <= 1
 c961:  x39 + x91 <= 1
 c962:  x42 + x91 <= 1
 c963:  x44 + x91 <= 1
 c964:  x46 + x91 <= 1
 c965:  x47 + x91 <= 1
 c966:  x48 + x91 <= 1
 c967:  x49 + x91 <= 1
 c968:  x51 + x91 <= 1
 c969:  x53 + x91 <= 1
 c970:  x54 + x91 <= 1
 c971:  x55 + x91 <= 1
 c972:  x3 + x92 <= 1
 c973:  x8 + x92 <= 1
 c974:  x9 + x92 <= 1
 c975:  x10 + x92 <= 1
 c976:  x13 + x92 <= 1
 c977:  x17 + x92 <= 1
 c978:  x21 + x92 <= 1
 c979:  x25 + x92 <= 1
 c980:  x26 + x92 <= 1
 c981:  x28 + x92 <= 1
 c982:  x31 + x92 <= 1
 c983:  x35 + x92 <= 1
 c984:  x38 + x92 <= 1
 c985:  x39 + x92 <= 1
 c986:  x41 + x92 <= 1
 c987:  x43 + x92 <= 1
 c988:  x49 + x92 <= 1
 c989:  x50 + x92 <= 1
 c990:  x51 + x92 <= 1
 c991:  x52 + x92 <= 1
 c992:  x53 + x92 <= 1
 c993:  x55 + x92 <= 1
 c994:  x1 + x93 <= 1
 c995:  x3 + x93 <= 1
 c996:  x4 + x93 <= 1
 c997:  x5 + x93 <= 1
 c998:  x8 + x93 <= 1
 c999:  x9 + x93 <= 1
 c1000: x11 + x93 <= 1
 c1001: x12 + x93 <= 1
 c1002: x13 + x93 <= 1
 c1003: x14 + x93 <= 1
 c1004: x15 + x93 <= 1
 c1005: x16 + x93 <= 1
 c1006: x17 + x93 <= 1
 c1007: x18 + x93 <= 1
 c1008: x19 + x93 <= 1
 c1009: x20 + x93 <= 1
 c1010: x21 + x93 <= 1
 c1011: x22 + x93 <= 1
 c1012: x23 + x93 <= 1
 c1013: x24 + x93 <= 1
 c1014: x26 + x93 <= 1
 c1015: x27 + x93 <= 1
 c1016: x30 + x93 <= 1
 c1017: x32 + x93 <= 1
 c1018: x34 + x93 <= 1
 c1019: x36 + x93 <= 1
 c1020: x37 + x93 <= 1
 c1021: x38 + x93 <= 1
 c1022: x39 + x93 <= 1
 c1023: x40 + x93 <= 1
 c1024: x44 + x93 <= 1
 c1025: x45 + x93 <= 1
 c1026: x48 + x93 <= 1
 c1027: x49 + x93 <= 1
 c1028: x54 + x93 <= 1
 c1029: x55 + x93 <= 1
 c1030: x1 + x94 <= 1
 c1031: x3 + x94 <= 1
 c1032: x4 + x94 <= 1
 c1033: x5 + x94 <= 1
 c1034: x6 + x94 <= 1
 c1035: x9 + x94 <= 1
 c1036: x11 + x94 <= 1
 c1037: x12 + x94 <= 1
 c1038: x14 + x94 <= 1
 c1039: x16 + x94 <= 1
 c1040: x17 + x94 <= 1
 c1041: x19 + x94 <= 1
 c1042: x21 + x94 <= 1
 c1043: x24 + x94 <= 1
 c1044: x28 + x94 <= 1
 c1045: x30 + x94 <= 1
 c1046: x31 + x94 <= 1
 c1047: x32 + x94 <= 1
 c1048: x34 + x94 <= 1
 c1049: x35 + x94 <= 1
 c1050: x38 + x94 <= 1
 c1051: x43 + x94 <= 1
 c1052: x45 + x94 <= 1
 c1053: x48 + x94 <= 1
 c1054: x49 + x94 <= 1
 c1055: x52 + x94 <= 1
 c1056: x54 + x94 <= 1
 c1057: x1 + x95 <= 1
 c1058: x2 + x95 <= 1
 c1059: x3 + x95 <= 1
 c1060: x6 + x95 <= 1
 c1061: x8 + x95 <= 1
 c1062: x9 + x95 <= 1
 c1063: x10 + x95 <= 1
 c1064: x16 + x95 <= 1
 c1065: x19 + x95 <= 1
 c1066: x20 + x95 <= 1
 c1067: x22 + x95 <= 1
 c1068: x25 + x95 <= 1
 c1069: x27 + x95 <= 1
 c1070: x28 + x95 <= 1
 c1071: x31 + x95 <= 1
 c1072: x37 + x95 <= 1
 c1073: x39 + x95 <= 1
 c1074: x40 + x95 <= 1
 c1075: x44 + x95 <= 1
 c1076: x45 + x95 <= 1
 c1077: x47 + x95 <= 1
 c1078: x49 + x95 <= 1
 c1079: x50 + x95 <= 1
 c1080: x52 + x95 <= 1
 c1081: x1 + x96 <= 1
 c1082: x2 + x96 <= 1
 c1083: x3 + x96 <= 1
 c1084: x5 + x96 <= 1
 c1085: x6 + x96 <= 1
 c1086: x7 + x96 <= 1
 c1087: x9 + x96 <= 1
 c1088: x11 + x96 <= 1
 c1089: x17 + x96 <= 1
 c1090: x18 + x96 <= 1
 c1091: x20 + x96 <= 1
 c1092: x22 + x96 <= 1
 c1093: x25 + x96 <= 1
 c1094: x26 + x96 <= 1
 c1095: x28 + x96 <= 1
 c1096: x29 + x96 <= 1
 c1097: x30 + x96 <= 1
 c1098: x34 + x96 <= 1
 c1099: x37 + x96 <= 1
 c1100: x39 + x96 <= 1
 c1101: x40 + x96 <= 1
 c1102: x42 + x96 <= 1
 c1103: x43 + x96 <= 1
 c1104: x47 + x96 <= 1
 c1105: x51 + x96 <= 1
 c1106: x52 + x96 <= 1
 c1107: x55 + x96 <= 1
 c1108: x4 + x97 <= 1
 c1109: x5 + x97 <= 1
 c1110: x8 + x97 <= 1
 c1111: x9 + x97 <= 1
 c1112: x11 + x97 <= 1
 c1113: x15 + x97 <= 1
 c1114: x19 + x97 <= 1
 c1115: x22 + x97 <= 1
 c1116: x24 + x97 <= 1
 c1117: x25 + x97 <= 1
 c1118: x27 + x97 <= 1
 c1119: x33 + x97 <= 1
 c1120: x34 + x97 <= 1
 c1121: x36 + x97 <= 1
 c1122: x38 + x97 <= 1
 c1123: x40 + x97 <= 1
 c1124: x41 + x97 <= 1
 c1125: x42 + x97 <= 1
 c1126: x43 + x97 <= 1
 c1127: x44 + x97 <= 1
 c1128: x47 + x97 <= 1
 c1129: x50 + x97 <= 1
 c1130: x54 + x97 <= 1
 c1131: x3 + x98 <= 1
 c1132: x4 + x98 <= 1
 c1133: x5 + x98 <= 1
 c1134: x6 + x98 <= 1
 c1135: x7 + x98 <= 1
 c1136: x11 + x98 <= 1
 c1137: x12 + x98 <= 1
 c1138: x13 + x98 <= 1
 c1139: x16 + x98 <= 1
 c1140: x17 + x98 <= 1
 c1141: x18 + x98 <= 1
 c1142: x19 + x98 <= 1
 c1143: x20 + x98 <= 1
 c1144: x22 + x98 <= 1
 c1145: x23 + x98 <= 1
 c1146: x24 + x98 <= 1
 c1147: x27 + x98 <= 1
 c1148: x28 + x98 <= 1
 c1149: x29 + x98 <= 1
 c1150: x30 + x98 <= 1
 c1151: x31 + x98 <= 1
 c1152: x32 + x98 <= 1
 c1153: x33 + x98 <= 1
 c1154: x34 + x98 <= 1
 c1155: x35 + x98 <= 1
 c1156: x36 + x98 <= 1
 c1157: x37 + x98 <= 1
 c1158: x38 + x98 <= 1
 c1159: x39 + x98 <= 1
 c1160: x40 + x98 <= 1
 c1161: x41 + x98 <= 1
 c1162: x45 + x98 <= 1
 c1163: x47 + x98 <= 1
 c1164: x48 + x98 <= 1
 c1165: x49 + x98 <= 1
 c1166: x51 + x98 <= 1
 c1167: x52 + x98 <= 1
 c1168: x54 + x98 <= 1
 c1169: x2 + x99 <= 1
 c1170: x3 + x99 <= 1
 c1171: x6 + x99 <= 1
 c1172: x8 + x99 <= 1
 c1173: x9 + x99 <= 1
 c1174: x11 + x99 <= 1
 c1175: x12 + x99 <= 1
 c1176: x13 + x99 <= 1
 c1177: x18 + x99 <= 1
 c1178: x19 + x99 <= 1
 c1179: x20 + x99 <= 1
 c1180: x22 + x99 <= 1
 c1181: x23 + x99 <= 1
 c1182: x24 + x99 <= 1
 c1183: x25 + x99 <= 1
 c1184: x30 + x99 <= 1
 c1185: x32 + x99 <= 1
 c1186: x34 + x99 <= 1
 c1187: x36 + x99 <= 1
 c1188: x39 + x99 <= 1
 c1189: x41 + x99 <= 1
 c1190: x42 + x99 <= 1
 c1191: x48 + x99 <= 1
 c1192: x51 + x99 <= 1
 c1193: x54 + x99 <= 1
 c1194: x2 + x100 <= 1
 c1195: x4 + x100 <= 1
 c1196: x5 + x100 <= 1
 c1197: x7 + x100 <= 1
 c1198: x12 + x100 <= 1
 c1199: x13 + x100 <= 1
 c1200: x14 + x100 <= 1
 c1201: x15 + x100 <= 1
 c1202: x16 + x100 <= 1
 c1203: x17 + x100 <= 1
 c1204: x21 + x100 <= 1
 c1205: x22 + x100 <= 1
 c1206: x23 + x100 <= 1
 c1207: x25 + x100 <= 1
 c1208: x29 + x100 <= 1
 c1209: x30 + x100 <= 1
 c1210: x32 + x100 <= 1
 c1211: x33 + x100 <= 1
 c1212: x34 + x100 <= 1
 c1213: x36 + x100 <= 1
 c1214: x37 + x100 <= 1
 c1215: x38 + x100 <= 1
 c1216: x39 + x100 <= 1
 c1217: x40 + x100 <= 1
 c1218: x45 + x100 <= 1
 c1219: x47 + x100 <= 1
 c1220: x48 + x100 <= 1
 c1221: x53 + x100 <= 1
 c1222: x2 + x101 <= 1
 c1223: x5 + x101 <= 1
 c1224: x6 + x101 <= 1
 c1225: x11 + x101 <= 1
 c1226: x12 + x101 <= 1
 c1227: x15 + x101 <= 1
 c1228: x16 + x101 <= 1
 c1229: x19 + x101 <= 1
 c1230: x23 + x101 <= 1
 c1231: x24 + x101 <= 1
 c1232: x27 + x101 <= 1
 c1233: x28 + x101 <= 1
 c1234: x29 + x101 <= 1
 c1235: x32 + x101 <= 1
 c1236: x33 + x101 <= 1
 c1237: x37 + x101 <= 1
 c1238: x46 + x101 <= 1
 c1239: x48 + x101 <= 1
 c1240: x49 + x101 <= 1
 c1241: x50 + x101 <= 1
 c1242: x52 + x101 <= 1
 c1243: x1 + x102 <= 1
 c1244: x2 + x102 <= 1
 c1245: x4 + x102 <= 1
 c1246: x5 + x102 <= 1
 c1247: x9 + x102 <= 1
 c1248: x10 + x102 <= 1
 c1249: x14 + x102 <= 1
 c1250: x16 + x102 <= 1
 c1251: x17 + x102 <= 1
 c1252: x18 + x102 <= 1
 c1253: x20 + x102 <= 1
 c1254: x25 + x102 <= 1
 c1255: x27 + x102 <= 1
 c1256: x28 + x102 <= 1
 c1257: x30 + x102 <= 1
 c1258: x31 + x102 <= 1
 c1259: x32 + x102 <= 1
 c1260: x36 + x102 <= 1
 c1261: x37 + x102 <= 1
 c1262: x38 + x102 <= 1
 c1263: x39 + x102 <= 1
 c1264: x43 + x102 <= 1
 c1265: x46 + x102 <= 1
 c1266: x47 + x102 <= 1
 c1267: x50 + x102 <= 1
 c1268: x51 + x102 <= 1
 c1269: x54 + x102 <= 1
 c1270: x55 + x102 <= 1
 c1271: x9 + x103 <= 1
 c1272: x10 + x103 <= 1
 c1273: x11 + x103 <= 1
 c1274: x12 + x103 <= 1
 c1275: x14 + x103 <= 1
 c1276: x15 + x103 <= 1
 c1277: x23 + x103 <= 1
 c1278: x25 + x103 <= 1
 c1279: x26 + x103 <= 1
 c1280: x30 + x103 <= 1
 c1281: x33 + x103 <= 1
 c1282: x34 + x103 <= 1
 c1283: x37 + x103 <= 1
 c1284: x38 + x103 <= 1
 c1285: x41 + x103 <= 1
 c1286: x42 + x103 <= 1
 c1287: x44 + x103 <= 1
 c1288: x46 + x103 <= 1
 c1289: x47 + x103 <= 1
 c1290: x1 + x104 <= 1
 c1291: x2 + x104 <= 1
 c1292: x3 + x104 <= 1
 c1293: x4 + x104 <= 1
 c1294: x6 + x104 <= 1
 c1295: x7 + x104 <= 1
 c1296: x9 + x104 <= 1
 c1297: x10 + x104 <= 1
 c1298: x11 + x104 <= 1
 c1299: x12 + x104 <= 1
 c1300: x14 + x104 <= 1
 c1301: x15 + x104 <= 1
 c1302: x17 + x104 <= 1
 c1303: x19 + x104 <= 1
 c1304: x27 + x104 <= 1
 c1305: x30 + x104 <= 1
 c1306: x32 + x104 <= 1
 c1307: x34 + x104 <= 1
 c1308: x39 + x104 <= 1
 c1309: x40 + x104 <= 1
 c1310: x41 + x104 <= 1
 c1311: x42 + x104 <= 1
 c1312: x44 + x104 <= 1
 c1313: x48 + x104 <= 1
 c1314: x49 + x104 <= 1
 c1315: x51 + x104 <= 1
 c1316: x54 + x104 <= 1
 c1317: x55 + x104 <= 1
 c1318: x10 + x105 <= 1
 c1319: x13 + x105 <= 1
 c1320: x15 + x105 <= 1
 c1321: x16 + x105 <= 1
 c1322: x17 + x105 <= 1
 c1323: x19 + x105 <= 1
 c1324: x20 + x105 <= 1
 c1325: x22 + x105 <= 1
 c1326: x25 + x105 <= 1
 c1327: x28 + x105 <= 1
 c1328: x29 + x105 <= 1
 c1329: x31 + x105 <= 1
 c1330: x32 + x105 <= 1
 c1331: x34 + x105 <= 1
 c1332: x36 + x105 <= 1
 c1333: x38 + x105 <= 1
 c1334: x42 + x105 <= 1
 c1335: x43 + x105 <= 1
 c1336: x49 + x105 <= 1
 c1337: x52 + x105 <= 1
 c1338: x54 + x105 <= 1
 c1339: x55 + x105 <= 1
 c1340: x1 + x106 <= 1
 c1341: x3 + x106 <= 1
 c1342: x4 + x106 <= 1
 c1343: x5 + x106 <= 1
 c1344: x7 + x106 <= 1
 c1345: x9 + x106 <= 1
 c1346: x12 + x106 <= 1
 c1347: x13 + x106 <= 1
 c1348: x15 + x106 <= 1
 c1349: x16 + x106 <= 1
 c1350: x22 + x106 <= 1
 c1351: x23 + x106 <= 1
 c1352: x25 + x106 <= 1
 c1353: x27 + x106 <= 1
 c1354: x28 + x106 <= 1
 c1355: x32 + x106 <= 1
 c1356: x35 + x106 <= 1
 c1357: x36 + x106 <= 1
 c1358: x37 + x106 <= 1
 c1359: x40 + x106 <= 1
 c1360: x43 + x106 <= 1
 c1361: x44 + x106 <= 1
 c1362: x48 + x106 <= 1
 c1363: x49 + x106 <= 1
 c1364: x53 + x106 <= 1
 c1365: x54 + x106 <= 1
 c1366: x55 + x106 <= 1
 c1367: x2 + x107 <= 1
 c1368: x3 + x107 <= 1
 c1369: x4 + x107 <= 1
 c1370: x6 + x107 <= 1
 c1371: x9 + x107 <= 1
 c1372: x12 + x107 <= 1
 c1373: x13 + x107 <= 1
 c1374: x15 + x107 <= 1
 c1375: x16 + x107 <= 1
 c1376: x19 + x107 <= 1
 c1377: x21 + x107 <= 1
 c1378: x22 + x107 <= 1
 c1379: x24 + x107 <= 1
 c1380: x25 + x107 <= 1
 c1381: x27 + x107 <= 1
 c1382: x29 + x107 <= 1
 c1383: x33 + x107 <= 1
 c1384: x35 + x107 <= 1
 c1385: x36 + x107 <= 1
 c1386: x37 + x107 <= 1
 c1387: x39 + x107 <= 1
 c1388: x41 + x107 <= 1
 c1389: x42 + x107 <= 1
 c1390: x43 + x107 <= 1
 c1391: x44 + x107 <= 1
 c1392: x47 + x107 <= 1
 c1393: x48 + x107 <= 1
 c1394: x49 + x107 <= 1
 c1395: x54 + x107 <= 1
 c1396: x4 + x108 <= 1
 c1397: x6 + x108 <= 1
 c1398: x7 + x108 <= 1
 c1399: x8 + x108 <= 1
 c1400: x9 + x108 <= 1
 c1401: x10 + x108 <= 1
 c1402: x12 + x108 <= 1
 c1403: x14 + x108 <= 1
 c1404: x15 + x108 <= 1
 c1405: x17 + x108 <= 1
 c1406: x18 + x108 <= 1
 c1407: x19 + x108 <= 1
 c1408: x21 + x108 <= 1
 c1409: x24 + x108 <= 1
 c1410: x26 + x108 <= 1
 c1411: x27 + x108 <= 1
 c1412: x29 + x108 <= 1
 c1413: x34 + x108 <= 1
 c1414: x35 + x108 <= 1
 c1415: x36 + x108 <= 1
 c1416: x37 + x108 <= 1
 c1417: x41 + x108 <= 1
 c1418: x42 + x108 <= 1
 c1419: x44 + x108 <= 1
 c1420: x46 + x108 <= 1
 c1421: x49 + x108 <= 1
 c1422: x50 + x108 <= 1
 c1423: x54 + x108 <= 1
 c1424: x1 + x109 <= 1
 c1425: x4 + x109 <= 1
 c1426: x6 + x109 <= 1
 c1427: x8 + x109 <= 1
 c1428: x9 + x109 <= 1
 c1429: x10 + x109 <= 1
 c1430: x16 + x109 <= 1
 c1431: x18 + x109 <= 1
 c1432: x23 + x109 <= 1
 c1433: x24 + x109 <= 1
 c1434: x27 + x109 <= 1
 c1435: x28 + x109 <= 1
 c1436: x32 + x109 <= 1
 c1437: x36 + x109 <= 1
 c1438: x37 + x109 <= 1
 c1439: x38 + x109 <= 1
 c1440: x39 + x109 <= 1
 c1441: x40 + x109 <= 1
 c1442: x44 + x109 <= 1
 c1443: x45 + x109 <= 1
 c1444: x46 + x109 <= 1
 c1445: x48 + x109 <= 1
 c1446: x50 + x109 <= 1
 c1447: x52 + x109 <= 1
 c1448: x53 + x109 <= 1
 c1449: x55 + x109 <= 1
 c1450: x1 + x110 <= 1
 c1451: x2 + x110 <= 1
 c1452: x3 + x110 <= 1
 c1453: x4 + x110 <= 1
 c1454: x5 + x110 <= 1
 c1455: x6 + x110 <= 1
 c1456: x7 + x110 <= 1
 c1457: x9 + x110 <= 1
 c1458: x10 + x110 <= 1
 c1459: x11 + x110 <= 1
 c1460: x16 + x110 <= 1
 c1461: x17 + x110 <= 1
 c1462: x18 + x110 <= 1
 c1463: x22 + x110 <= 1
 c1464: x25 + x110 <= 1
 c1465: x28 + x110 <= 1
 c1466: x29 + x110 <= 1
 c1467: x35 + x110 <= 1
 c1468: x36 + x110 <= 1
 c1469: x37 + x110 <= 1
 c1470: x38 + x110 <= 1
 c1471: x43 + x110 <= 1
 c1472: x44 + x110 <= 1
 c1473: x47 + x110 <= 1
 c1474: x50 + x110 <= 1
 c1475: x51 + x110 <= 1
 c1476: x52 + x110 <= 1
 c1477: x53 + x110 <= 1
 c1478: x54 + x110 <= 1
 c1479: x55 + x110 <= 1
Bounds
 0 <= x1 <= 1
 0 <= x2 <= 1
 0 <= x3 <= 1
 0 <= x4 <= 1
 0 <= x5 <= 1
 0 <= x6 <= 1
 0 <= x7 <= 1
 0 <= x8 <= 1
 0 <= x9 <= 1
 0 <= x10 <= 1
 0 <= x11 <= 1
 0 <= x12 <= 1
 0 <= x13 <= 1
 0 <= x14 <= 1
 0 <= x15 <= 1
 0 <= x16 <= 1
 0 <= x17 <= 1
 0 <= x18 <= 1
 0 <= x19 <= 1
 0 <= x20 <= 1
 0 <= x21 <= 1
 0 <= x22 <= 1
 0 <= x23 <= 1
 0 <= x24 <= 1
 0 <= x25 <= 1
 0 <= x26 <= 1
 0 <= x27 <= 1
 0 <= x28 <= 1
 0 <= x29 <= 1
 0 <= x30 <= 1
 0 <= x31 <= 1
 0 <= x32 <= 1
 0 <= x33 <= 1
 0 <= x34 <= 1
 0 <= x35 <= 1
 0 <= x36 <= 1
 0 <= x37 <= 1
 0 <= x38 <= 1
 0 <= x39 <= 1
 0 <= x40 <= 1
 0 <= x41 <= 1
 0 <= x42 <= 1
 0 <= x43 <= 1
 0 <= x44 <= 1
 0 <= x45 <= 1
 0 <= x46 <= 1
 0 <= x47 <= 1
 0 <= x48 <= 1
 0 <= x49 <= 1
 0 <= x50 <= 1
 0 <= x51 <= 1
 0 <= x52 <= 1
 0 <= x53 <= 1
 0 <= x54 <= 1
 0 <= x55 <= 1
 0 <= x56 <= 1
 0 <= x57 <= 1
 0 <= x58 <= 1
 0 <= x59 <= 1
 0 <= x60 <= 1
 0 <= x61 <= 1
 0 <= x62 <= 1
 0 <= x63 <= 1
 0 <= x64 <= 1
 0 <= x65 <= 1
 0 <= x66 <= 1
 0 <= x67 <= 1
 0 <= x68 <= 1
 0 <= x69 <= 1
 0 <= x70 <= 1
 0 <= x71 <= 1
 0 <= x72 <= 1
 0 <= x73 <= 1
 0 <= x74 <= 1
 0 <= x75 <= 1
 0 <= x76 <= 1
 0 <= x77 <= 1
 0 <= x78 <= 1
 0 <= x79 <= 1
 0 <= x80 <= 1
 0 <= x81 <= 1
 0 <= x82 <= 1
 0 <= x83 <= 1
 0 <= x84 <= 1
 0 <= x85 <= 1
 0 <= x86 <= 1
 0 <= x87 <= 1
 0 <= x88 <= 1
 0 <= x89 <= 1
 0 <= x90 <= 1
 0 <= x91 <= 1
 0 <= x92 <= 1
 0 <= x93 <= 1
 0 <= x94 <= 1
 0 <= x95 <= 1
 0 <= x96 <= 1
 0 <= x97 <= 1
 0 <= x98 <= 1
 0 <= x99 <= 1
 0 <= x100 <= 1
 0 <= x101 <= 1
 0 <= x102 <= 1
 0 <= x103 <= 1
 0 <= x104 <= 1
 0 <= x105 <= 1
 0 <= x106 <= 1
 0 <= x107 <= 1
 0 <= x108 <= 1
 0 <= x109 <= 1
 0 <= x110 <= 1
Binaries
 x1  x2  x3  x4  x5  x6  x7  x8  x9  x10  x11  x12  x13  x14  x15  x16  x17 
 x18  x19  x20  x21  x22  x23  x24  x25  x26  x27  x28  x29  x30  x31  x32 
 x33  x34  x35  x36  x37  x38  x39  x40  x41  x42  x43  x44  x45  x46  x47 
 x48  x49  x50  x51  x52  x53  x54  x55  x56  x57  x58  x59  x60  x61  x62 
 x63  x64  x65  x66  x67  x68  x69  x70  x71  x72  x73  x74  x75  x76  x77 
 x78  x79  x80  x81  x82  x83  x84  x85  x86  x87  x88  x89  x90  x91  x92 
 x93  x94  x95  x96  x97  x98  x99  x100  x101  x102  x103  x104  x105  x106 
 x107  x108  x109  x110 
End
